Route #1: 1 7 63 85 52 53 15 32 17 42 59 107 99 47 87 106 16 25 13 36 56 61 1 
Route #2: 1 112 110 111 78 50 89 73 3 93 35 57 100 54 94 114 27 1 
Route #3: 1 74 98 76 34 72 26 109 95 92 62 29 21 82 88 30 44 105 75 8 67 1 
Route #4: 1 37 71 55 97 77 58 33 81 65 96 22 19 60 86 5 51 41 91 23 31 70 24 1 
Route #5: 1 102 64 46 104 69 11 113 38 80 90 39 43 68 83 84 1 
Route #6: 1 1 40 14 28 20 18 49 79 66 48 108 45 103 1 
Route #7: 1 2 101 9 1 
Route #8: 1 10 1 
Route #9: 1 12 6 1 
Route #10: 1 4 1 

Cost 25936.3
Time 3.4113


 * Another infos *

 Iterations: 115 Time: 3.4113 sec - 0.0569 min - 0.0009 horas
0.0000 h 0.0569 min
Problem dimension: 115
